Features/ForMiniZinc/benchmark_puzzles/benchmarks5x5/60/puzzle15.dzn
S = 5;
start = [|8,0,7,3,0,10,0,0,0,0,23,0,0,6,18,0,0,20,17,9,0,15,0,13,0|
0,19,18,0,0,3,0,2,24,0,1,13,0,0,0,0,0,0,12,0,0,0,0,0,0|
0,0,0,0,22,0,0,15,0,18,0,0,9,0,19,10,0,0,0,0,0,7,25,21,2|
0,13,0,0,0,0,14,0,0,0,0,20,0,0,0,0,0,0,0,19,9,0,1,0,0|
0,6,0,0,20,9,0,7,1,17,12,0,16,0,0,22,0,0,0,0,0,0,19,0,0|
0,0,0,0,13,18,23,25,11,2,10,15,0,0,0,0,0,6,8,0,0,0,0,0,9|
24,0,11,4,14,0,0,0,15,0,0,0,0,12,0,0,0,9,0,7,0,5,0,0,23|
0,0,0,21,25,14,5,20,4,0,0,23,0,9,16,0,18,0,0,0,0,0,0,0,17|
0,3,8,0,23,0,0,0,0,0,0,0,0,0,0,0,0,0,0,0,15,0,2,14,0|
0,0,20,6,0,7,9,1,17,12,21,19,0,8,0,23,0,10,0,0,22,4,18,0,13|
22,20,0,8,19,24,0,14,2,0,15,0,1,10,0,12,23,0,0,0,18,0,0,7,0|
13,0,0,0,2,0,0,0,0,0,0,0,0,4,6,20,21,0,18,22,14,19,0,10,0|
15,9,0,0,0,0,0,10,0,0,0,22,0,0,0,0,0,0,0,1,0,6,5,11,0|
0,0,0,14,0,0,0,0,19,16,0,8,0,0,0,0,0,3,10,0,20,0,0,0,0|
0,24,0,0,0,1,0,0,0,0,5,0,19,13,0,14,0,2,7,16,17,0,8,0,22|
18,0,0,0,5,0,0,0,23,0,19,10,15,0,12,0,20,0,22,0,0,0,0,9,3|
6,0,13,20,0,2,10,0,14,0,0,0,0,0,0,0,0,15,0,0,24,0,0,17,19|
23,17,16,15,11,25,0,0,22,0,0,9,0,1,0,0,10,4,21,0,0,2,14,0,6|
0,21,14,0,0,12,1,0,5,0,0,0,2,24,0,0,0,0,0,11,23,25,16,0,0|
0,2,0,9,8,0,0,0,0,0,0,0,0,22,14,0,0,0,0,13,1,10,7,18,0|
5,0,0,2,0,17,0,12,0,0,0,11,0,0,0,0,0,0,0,21,0,18,23,0,0|
19,0,0,0,0,0,0,0,0,0,0,0,0,0,0,0,2,18,0,20,13,12,0,0,0|
20,0,0,16,18,4,0,0,25,10,0,0,0,15,0,9,0,0,0,14,21,0,0,0,11|
0,0,3,0,1,0,0,0,0,0,16,17,0,20,25,0,0,22,23,10,0,0,0,19,4|
21,0,4,0,6,22,15,0,0,0,24,0,7,19,1,17,3,13,0,25,0,8,10,0,16|];